897789
85,89,8,53,91,97,42,35,36,44,55,72,99,38,50,88,76,45,87,80,68,63,13,37,48,1,70,74,32,60,31,62,93,49,10,56,69,75,6,41,18,77,30,96,21,20,9,33,57,47,95,73,25,78,51,79,29,40,94,26,12,17,22,84,92,39,14,7,66,4,81,86,23,98,54,65,52,43,24,19,59,90,71,34,46,28,11,16,15,83,61,58,82,67,27,2,3,5,64